(set-info :status unknown)
(declare-fun %B () (_ BitVec 47))
(declare-fun %A () (_ BitVec 47))
(declare-fun %X () (_ BitVec 47))
(declare-fun u_%Y () (_ BitVec 8))
(declare-fun |ana_isPowerOf2(%A)| () (_ BitVec 1))
(assert
 (let (($x13505 (or (and (distinct %X (_ bv70368744177664 47)) true) (and (distinct (bvlshr %A %B) (_ bv140737488355327 47)) true))))
 (let ((?x258 (bvlshr %A %B)))
 (let (($x1018 (and (distinct ?x258 (_ bv0 47)) true)))
 (let (($x6208 (bvult %B (_ bv47 47))))
 (let (($x2291 (= |ana_isPowerOf2(%A)| (_ bv1 1))))
 (let (($x17419 (=> $x2291 (and (and (distinct %A (_ bv0 47)) true) (= (bvand %A (bvsub %A (_ bv1 47))) (_ bv0 47))))))
 (and $x6208 $x1018 $x13505 $x17419 $x6208 $x2291 (= u_%Y (_ bv1 8)) (not (and $x6208 $x1018 $x13505))))))))))
(check-sat)
